c generated by sgen
p cnf 97 204
-2 -3 -4 0
-1 -3 -4 0
-1 -2 -4 0
-1 -2 -3 0
-6 -7 -8 0
-5 -7 -8 0
-5 -6 -8 0
-5 -6 -7 0
-10 -11 -12 0
-9 -11 -12 0
-9 -10 -12 0
-9 -10 -11 0
-14 -15 -16 0
-13 -15 -16 0
-13 -14 -16 0
-13 -14 -15 0
-18 -19 -20 0
-17 -19 -20 0
-17 -18 -20 0
-17 -18 -19 0
-22 -23 -24 0
-21 -23 -24 0
-21 -22 -24 0
-21 -22 -23 0
-26 -27 -28 0
-25 -27 -28 0
-25 -26 -28 0
-25 -26 -27 0
-30 -31 -32 0
-29 -31 -32 0
-29 -30 -32 0
-29 -30 -31 0
-34 -35 -36 0
-33 -35 -36 0
-33 -34 -36 0
-33 -34 -35 0
-38 -39 -40 0
-37 -39 -40 0
-37 -38 -40 0
-37 -38 -39 0
-42 -43 -44 0
-41 -43 -44 0
-41 -42 -44 0
-41 -42 -43 0
-46 -47 -48 0
-45 -47 -48 0
-45 -46 -48 0
-45 -46 -47 0
-50 -51 -52 0
-49 -51 -52 0
-49 -50 -52 0
-49 -50 -51 0
-54 -55 -56 0
-53 -55 -56 0
-53 -54 -56 0
-53 -54 -55 0
-58 -59 -60 0
-57 -59 -60 0
-57 -58 -60 0
-57 -58 -59 0
-62 -63 -64 0
-61 -63 -64 0
-61 -62 -64 0
-61 -62 -63 0
-66 -67 -68 0
-65 -67 -68 0
-65 -66 -68 0
-65 -66 -67 0
-70 -71 -72 0
-69 -71 -72 0
-69 -70 -72 0
-69 -70 -71 0
-74 -75 -76 0
-73 -75 -76 0
-73 -74 -76 0
-73 -74 -75 0
-78 -79 -80 0
-77 -79 -80 0
-77 -78 -80 0
-77 -78 -79 0
-82 -83 -84 0
-81 -83 -84 0
-81 -82 -84 0
-81 -82 -83 0
-86 -87 -88 0
-85 -87 -88 0
-85 -86 -88 0
-85 -86 -87 0
-90 -91 -92 0
-89 -91 -92 0
-89 -90 -92 0
-89 -90 -91 0
-93 -94 -95 0
-93 -94 -96 0
-93 -94 -97 0
-93 -95 -96 0
-93 -95 -97 0
-93 -96 -97 0
-94 -95 -96 0
-94 -95 -97 0
-94 -96 -97 0
-95 -96 -97 0
41 53 69 0
46 53 69 0
46 41 69 0
46 41 53 0
61 47 39 0
6 47 39 0
6 61 39 0
6 61 47 0
35 84 65 0
16 84 65 0
16 35 65 0
16 35 84 0
89 3 66 0
31 3 66 0
31 89 66 0
31 89 3 0
62 9 71 0
19 9 71 0
19 62 71 0
19 62 9 0
37 57 23 0
93 57 23 0
93 37 23 0
93 37 57 0
12 42 49 0
1 42 49 0
1 12 49 0
1 12 42 0
5 11 97 0
83 11 97 0
83 5 97 0
83 5 11 0
90 17 43 0
60 17 43 0
60 90 43 0
60 90 17 0
10 58 32 0
77 58 32 0
77 10 32 0
77 10 58 0
48 92 27 0
96 92 27 0
96 48 27 0
96 48 92 0
38 81 56 0
29 81 56 0
29 38 56 0
29 38 81 0
24 50 18 0
68 50 18 0
68 24 18 0
68 24 50 0
8 73 79 0
34 73 79 0
34 8 79 0
34 8 73 0
80 63 4 0
13 63 4 0
13 80 4 0
13 80 63 0
72 59 2 0
33 59 2 0
33 72 2 0
33 72 59 0
45 88 21 0
82 88 21 0
82 45 21 0
82 45 88 0
64 86 95 0
36 86 95 0
36 64 95 0
36 64 86 0
78 25 22 0
55 25 22 0
55 78 22 0
55 78 25 0
67 44 76 0
28 44 76 0
28 67 76 0
28 67 44 0
26 52 15 0
30 52 15 0
30 26 15 0
30 26 52 0
87 7 14 0
70 7 14 0
70 87 14 0
70 87 7 0
94 54 75 0
20 54 75 0
20 94 75 0
20 94 54 0
40 91 74 0
40 91 51 0
40 91 85 0
40 74 51 0
40 74 85 0
40 51 85 0
91 74 51 0
91 74 85 0
91 51 85 0
74 51 85 0
